p edge 50 368
e 1 5
e 1 6
e 1 13
e 1 16
e 1 17
e 1 25
e 1 26
e 1 33
e 1 35
e 1 42
e 1 46
e 1 49
e 2 10
e 2 19
e 2 21
e 2 24
e 2 25
e 2 28
e 2 32
e 2 33
e 2 35
e 2 38
e 2 40
e 2 42
e 2 45
e 2 49
e 3 7
e 3 9
e 3 13
e 3 14
e 3 28
e 3 32
e 3 33
e 3 41
e 3 42
e 3 43
e 4 5
e 4 10
e 4 11
e 4 13
e 4 17
e 4 21
e 4 22
e 4 23
e 4 25
e 4 26
e 4 31
e 4 34
e 4 36
e 4 37
e 4 40
e 4 44
e 4 49
e 5 7
e 5 8
e 5 10
e 5 13
e 5 14
e 5 18
e 5 19
e 5 27
e 5 30
e 5 37
e 5 40
e 5 42
e 5 43
e 5 44
e 5 47
e 6 12
e 6 14
e 6 17
e 6 18
e 6 27
e 6 30
e 6 38
e 6 39
e 6 47
e 6 48
e 7 14
e 7 21
e 7 22
e 7 23
e 7 26
e 7 29
e 7 31
e 7 38
e 7 39
e 7 40
e 7 43
e 7 48
e 8 9
e 8 11
e 8 18
e 8 29
e 8 31
e 8 33
e 8 35
e 8 39
e 8 40
e 8 42
e 8 43
e 9 12
e 9 16
e 9 19
e 9 21
e 9 22
e 9 27
e 9 28
e 9 33
e 9 34
e 9 35
e 9 46
e 9 47
e 9 50
e 10 11
e 10 12
e 10 13
e 10 14
e 10 20
e 10 21
e 10 26
e 10 30
e 10 31
e 10 33
e 10 36
e 10 37
e 10 46
e 10 49
e 10 50
e 11 14
e 11 21
e 11 23
e 11 24
e 11 37
e 11 39
e 11 40
e 11 41
e 11 48
e 12 13
e 12 14
e 12 16
e 12 17
e 12 18
e 12 19
e 12 24
e 12 27
e 12 29
e 12 40
e 12 45
e 12 49
e 12 50
e 13 14
e 13 15
e 13 19
e 13 21
e 13 22
e 13 27
e 13 30
e 13 35
e 13 40
e 13 41
e 13 44
e 13 45
e 13 46
e 13 50
e 14 16
e 14 20
e 14 23
e 14 28
e 14 30
e 14 35
e 14 37
e 14 42
e 14 44
e 14 48
e 14 49
e 14 50
e 15 23
e 15 24
e 15 25
e 15 31
e 15 33
e 15 34
e 15 39
e 15 43
e 15 44
e 15 46
e 16 18
e 16 27
e 16 33
e 16 37
e 16 41
e 16 42
e 16 43
e 16 46
e 17 19
e 17 20
e 17 21
e 17 22
e 17 24
e 17 26
e 17 29
e 17 30
e 17 32
e 17 33
e 17 36
e 17 45
e 17 50
e 18 28
e 18 29
e 18 36
e 18 37
e 18 46
e 18 49
e 19 20
e 19 22
e 19 24
e 19 25
e 19 27
e 19 28
e 19 29
e 19 30
e 19 32
e 19 35
e 19 38
e 19 41
e 19 42
e 19 47
e 19 48
e 19 49
e 20 22
e 20 23
e 20 26
e 20 27
e 20 28
e 20 30
e 20 31
e 20 37
e 20 42
e 20 47
e 21 29
e 21 30
e 21 32
e 21 34
e 21 40
e 22 23
e 22 25
e 22 29
e 22 33
e 22 41
e 22 45
e 22 46
e 22 47
e 23 24
e 23 25
e 23 36
e 23 37
e 23 41
e 23 45
e 23 48
e 24 25
e 24 32
e 24 38
e 24 40
e 24 41
e 24 45
e 24 47
e 24 49
e 25 32
e 25 36
e 25 37
e 25 38
e 25 39
e 25 40
e 25 45
e 26 34
e 26 40
e 26 41
e 26 43
e 26 45
e 26 49
e 27 28
e 27 33
e 27 43
e 27 44
e 27 50
e 28 29
e 28 30
e 28 31
e 28 32
e 28 33
e 28 37
e 28 43
e 28 44
e 28 45
e 28 47
e 28 49
e 29 30
e 29 33
e 29 35
e 29 36
e 29 37
e 29 38
e 29 39
e 29 42
e 29 44
e 29 45
e 29 46
e 29 50
e 30 33
e 30 36
e 30 42
e 31 35
e 31 37
e 31 38
e 31 43
e 31 44
e 31 45
e 31 47
e 32 37
e 32 38
e 32 43
e 32 44
e 32 46
e 33 35
e 33 36
e 33 43
e 33 46
e 33 49
e 34 35
e 34 41
e 34 46
e 34 47
e 34 48
e 35 40
e 35 42
e 35 48
e 36 41
e 36 42
e 36 49
e 37 39
e 37 40
e 37 48
e 37 49
e 38 42
e 38 43
e 38 44
e 39 42
e 39 45
e 39 49
e 39 50
e 40 43
e 41 44
e 41 45
e 41 46
e 41 48
e 41 50
e 42 44
e 42 50
e 43 45
e 43 47
e 43 49
e 43 50
e 44 45
e 45 46
e 46 48
e 46 49
e 46 50
